p cnf 30 45
13 29 -4 0
-5 -25 8 0
26 16 -12 0
-18 5 -7 0
-5 -12 -30 0
29 1 -2 0
-10 26 -23 0
28 19 15 0
-1 11 -14 0
26 3 9 0
-1 -12 -21 0
2 9 -21 0
2 -26 -5 0
-2 26 -5 0
13 16 -26 0
8 -28 16 0
-28 -7 23 0
-7 17 18 0
-13 -9 -21 0
24 -25 -5 0
-10 21 -18 0
-10 9 17 0
-11 21 -24 0
10 -1 -21 0
22 -27 -26 0
21 -25 26 0
-7 -5 -8 0
-8 20 -10 0
12 10 -19 0
19 14 18 0
-25 21 -11 0
-26 -2 25 0
-13 20 7 0
15 9 17 0
-20 -26 -10 0
3 28 -11 0
2 -25 11 0
-18 -3 6 0
2 -21 -14 0
-2 22 -11 0
19 24 13 0
-5 19 -2 0
-30 -3 -8 0
16 -17 -4 0
5 2 16 0
